(set-info :smt-lib-version 2.6)
(set-logic QF_UFLRA)
(set-info :source |
MathSat group

|)
(set-info :category "random")
(set-info :status unsat)
(declare-fun x0 () Real)
(declare-fun x1 () Real)
(declare-fun x2 () Real)
(declare-fun x3 () Real)
(declare-fun x4 () Real)
(declare-fun x5 () Real)
(declare-fun x6 () Real)
(declare-fun x7 () Real)
(declare-fun x8 () Real)
(declare-fun x9 () Real)
(declare-fun x10 () Real)
(declare-fun x11 () Real)
(declare-fun x12 () Real)
(declare-fun x13 () Real)
(declare-fun x14 () Real)
(declare-fun x15 () Real)
(declare-fun x16 () Real)
(declare-fun x17 () Real)
(declare-fun x18 () Real)
(declare-fun x19 () Real)
(declare-fun x20 () Real)
(declare-fun x21 () Real)
(declare-fun x22 () Real)
(declare-fun x23 () Real)
(declare-fun x24 () Real)
(declare-fun x25 () Real)
(declare-fun x26 () Real)
(declare-fun x27 () Real)
(declare-fun x28 () Real)
(declare-fun x29 () Real)
(declare-fun x30 () Real)
(declare-fun x31 () Real)
(declare-fun x32 () Real)
(declare-fun x33 () Real)
(declare-fun x34 () Real)
(declare-fun x35 () Real)
(declare-fun x36 () Real)
(declare-fun x37 () Real)
(declare-fun x38 () Real)
(declare-fun x39 () Real)
(declare-fun f0_1 (Real) Real)
(declare-fun f0_2 (Real Real) Real)
(declare-fun f0_3 (Real Real Real) Real)
(declare-fun f0_4 (Real Real Real Real) Real)
(declare-fun P0 () Bool)
(declare-fun P1 () Bool)
(declare-fun P2 () Bool)
(declare-fun P3 () Bool)
(declare-fun P4 () Bool)
(declare-fun P5 () Bool)
(declare-fun P6 () Bool)
(declare-fun P7 () Bool)
(declare-fun P8 () Bool)
(declare-fun P9 () Bool)
(declare-fun P10 () Bool)
(declare-fun P11 () Bool)
(declare-fun P12 () Bool)
(declare-fun P13 () Bool)
(declare-fun P14 () Bool)
(declare-fun P15 () Bool)
(declare-fun P16 () Bool)
(declare-fun P17 () Bool)
(declare-fun P18 () Bool)
(declare-fun P19 () Bool)
(declare-fun P20 () Bool)
(declare-fun P21 () Bool)
(declare-fun P22 () Bool)
(declare-fun P23 () Bool)
(declare-fun P24 () Bool)
(declare-fun P25 () Bool)
(declare-fun P26 () Bool)
(declare-fun P27 () Bool)
(declare-fun P28 () Bool)
(declare-fun P29 () Bool)
(declare-fun P30 () Bool)
(declare-fun P31 () Bool)
(declare-fun P32 () Bool)
(declare-fun P33 () Bool)
(declare-fun P34 () Bool)
(declare-fun P35 () Bool)
(declare-fun P36 () Bool)
(declare-fun P37 () Bool)
(declare-fun P38 () Bool)
(declare-fun P39 () Bool)
(assert (let ((?v_60 (distinct (- (+ (* 2 x26) (* 55 x3)) (* 20 x29)) 14)) (?v_12 (distinct (+ (- (* 5 x5) (* 56 x19)) (* 12 x29)) 44)) (?v_203 (= (- (- (* 43 x35) (* 23 x37)) (* 23 x8)) 14)) (?v_27 (* 32 x3))) (let ((?v_78 (<= (- (- (* 34 x35) (* 21 x28)) ?v_27) 58)) (?v_42 (<= (- (- (* 52 x3) (* 16 x36)) (* 41 x16)) 34)) (?v_76 (< (- (- (* 29 x23) (* 15 x17)) (* 42 x36)) 43)) (?v_160 (< (- (+ (* 2 x22) (* 35 x25)) (* 15 x5)) 54)) (?v_146 (= x30 x0)) (?v_68 (f0_1 x9))) (let ((?v_88 (distinct x21 ?v_68)) (?v_21 (f0_1 x29))) (let ((?v_28 (= ?v_21 (f0_2 x18 x23))) (?v_1 (= (f0_2 x37 x3) (f0_2 x8 x32))) (?v_2 (f0_2 x7 x39))) (let ((?v_32 (distinct x19 ?v_2)) (?v_24 (f0_1 x36))) (let ((?v_153 (distinct ?v_24 x23)) (?v_15 (distinct (f0_1 x39) (f0_1 x38))) (?v_120 (distinct x21 (f0_2 x23 x6))) (?v_198 (= (f0_2 x22 x0) (f0_1 x0))) (?v_63 (distinct (f0_2 x11 x34) x28)) (?v_47 (f0_1 x25))) (let ((?v_100 (= ?v_47 (f0_1 x14))) (?v_59 (= x38 (f0_1 x1))) (?v_155 (= (f0_2 x4 x2) ?v_47)) (?v_152 (= (f0_2 x12 x35) x24)) (?v_67 (= (f0_1 x31) (f0_2 x34 x20))) (?v_26 (distinct ?v_2 x36)) (?v_167 (distinct (f0_2 x30 x14) x12)) (?v_136 (= (f0_2 x24 x2) ?v_24)) (?v_10 (= x32 (f0_2 x39 x4))) (?v_20 (= x12 ?v_24)) (?v_174 (distinct (f0_1 x33) x7)) (?v_11 (= ?v_68 (f0_1 x22))) (?v_83 (distinct (f0_1 x4) x27)) (?v_105 (= (f0_2 x22 x1) ?v_21)) (?v_22 (distinct x35 (f0_2 x20 x24))) (?v_58 (distinct x33 (f0_2 x0 x21))) (?v_85 (distinct x19 x18)) (?v_29 (distinct (f0_2 x26 x25) (f0_2 x31 x1))) (?v_35 (= (f0_2 x3 x33) (f0_1 x37))) (?v_113 (distinct (f0_1 x30) (f0_1 x18))) (?v_122 (distinct (f0_2 x35 x11) (f0_2 x11 x11))) (?v_34 (distinct (f0_2 x29 x21) (f0_2 x3 x13))) (?v_65 (distinct (f0_2 x5 x27) (f0_2 x18 x12))) (?v_55 (distinct (f0_2 x27 x23) x35)) (?v_86 (= x0 x0)) (?v_168 (= (f0_2 x23 x3) (f0_1 x6))) (?v_25 (= x28 (f0_2 x12 x20))) (?v_43 (distinct (f0_1 x34) (f0_1 x26))) (?v_57 (= x39 (f0_2 x35 x39))) (?v_127 (= (f0_1 x2) (f0_1 x28)))) (let ((?v_4 (not ?v_25)) (?v_0 (not P34)) (?v_3 (not ?v_100)) (?v_192 (not ?v_1)) (?v_17 (not ?v_20))) (let ((?v_5 (or ?v_32 ?v_17)) (?v_66 (not P13)) (?v_157 (not P6)) (?v_46 (not ?v_26)) (?v_102 (not ?v_105)) (?v_7 (not P17)) (?v_181 (not P33)) (?v_148 (not ?v_58)) (?v_38 (not ?v_57)) (?v_158 (not P15)) (?v_151 (not P19)) (?v_44 (not P36)) (?v_135 (not P37)) (?v_18 (not ?v_203)) (?v_117 (not P4)) (?v_202 (not ?v_10)) (?v_52 (not ?v_43)) (?v_143 (not ?v_15)) (?v_23 (not ?v_85)) (?v_54 (not ?v_160)) (?v_53 (not ?v_174)) (?v_69 (not P39)) (?v_64 (not P23)) (?v_119 (not ?v_67)) (?v_50 (not ?v_34)) (?v_36 (not P35)) (?v_61 (not P38)) (?v_41 (not P2)) (?v_45 (not ?v_28)) (?v_77 (not P12)) (?v_39 (not ?v_22)) (?v_142 (not ?v_78)) (?v_99 (not P24)) (?v_71 (not ?v_42)) (?v_115 (not P8)) (?v_131 (not P10)) (?v_82 (not ?v_155)) (?v_132 (not ?v_59)) (?v_138 (not ?v_168)) (?v_190 (not ?v_35)) (?v_129 (not P29)) (?v_62 (not P9)) (?v_90 (not ?v_63)) (?v_187 (not ?v_153)) (?v_118 (not ?v_88)) (?v_95 (not P28)) (?v_193 (not ?v_65)) (?v_141 (not ?v_60)) (?v_173 (not ?v_113)) (?v_189 (not P1)) (?v_98 (not P31)) (?v_79 (not ?v_83)) (?v_101 (not P20)) (?v_172 (not P26)) (?v_112 (not ?v_86)) (?v_123 (not ?v_11)) (?v_109 (not P27)) (?v_134 (not P21)) (?v_144 (not P25)) (?v_128 (not ?v_146)) (?v_179 (not P30)) (?v_130 (not P32)) (?v_124 (not P14)) (?v_154 (not P3)) (?v_166 (not ?v_55)) (?v_163 (not P11)) (?v_170 (not ?v_127)) (?v_156 (not ?v_122)) (?v_182 (not ?v_136)) (?v_200 (not ?v_29)) (?v_186 (not P0)) (?v_197 (not ?v_12)) (?v_149 (not ?v_198)) (?v_171 (not ?v_152)) (?v_184 (not P7)) (?v_165 (not ?v_32)) (?v_185 (not P18)) (?v_201 (not ?v_120)) (?v_191 (not P16)) (?v_188 (not ?v_167)) (?v_37 (<= (+ (* 8 x2) (* 35 x30) (* 22 x11)) 8)) (?v_70 (distinct (+ (* 49 x17) (* 26 x22) (* 33 x33)) 36))) (let ((?v_96 (not ?v_70)) (?v_159 (<= (+ (* 27 x25) (* 36 x18) (* 50 x11)) 54))) (let ((?v_161 (not ?v_159)) (?v_19 (<= (+ (* 3 x37) (* 36 x38) (* 6 x30)) (- 23)))) (let ((?v_110 (not ?v_19)) (?v_9 (= (- (+ (* (- 4) x35) (* 24 x36)) (* 52 x34)) 1))) (let ((?v_13 (not ?v_9)) (?v_31 (< (- (+ (* (- 5) x12) (* 23 x12)) ?v_27) (- 27)))) (let ((?v_84 (not ?v_31)) (?v_6 (= (+ (- (* 47 x28) (* 35 x23)) (* 41 x32)) (- 45))) (?v_93 (<= (+ (* (- 29) x13) (* 12 x30) (* 55 x12)) 22))) (let ((?v_116 (not ?v_93)) (?v_126 (<= (- (- (* (- 30) x18) (* 37 x33)) (* 31 x34)) 39))) (let ((?v_94 (not ?v_126)) (?v_92 (distinct (- (- (* (- 27) x16) (* 24 x8)) (* 21 x10)) (- 11)))) (let ((?v_8 (not ?v_92)) (?v_16 (<= (+ (- (* 48 x2) (* 45 x1)) (* 36 x14)) (- 24))) (?v_30 (<= (- (- (* (- 11) x15) (* 56 x5)) (* 9 x5)) 0))) (let ((?v_14 (not ?v_30)) (?v_106 (not ?v_6)) (?v_33 (= (- (+ (* 39 x21) (* 22 x24)) (* 53 x28)) (- 18)))) (let ((?v_103 (not ?v_33)) (?v_89 (= (+ (- (* (- 22) x5) (* 5 x12)) (* 47 x24)) (- 50)))) (let ((?v_48 (not ?v_89)) (?v_49 (<= (+ (* 9 x7) (* 6 x7) (* 53 x15)) (- 46))) (?v_139 (< (+ (- (* (- 21) x5) (* 43 x11)) (* 42 x3)) (- 54)))) (let ((?v_80 (not ?v_139)) (?v_125 (distinct (+ (* (- 15) x12) (* 9 x35) (* 15 x31)) (- 49))) (?v_56 (<= (+ (* (- 31) x1) (* 11 x7) (* 37 x18)) (- 12)))) (let ((?v_97 (not ?v_56)) (?v_140 (= (+ (* (- 41) x16) (* 51 x15) (* 40 x39)) (- 29)))) (let ((?v_40 (not ?v_140)) (?v_87 (<= (+ (- x25 (* 25 x39)) (* 38 x31)) (- 2))) (?v_51 (< (+ (- (* (- 40) x3) (* 39 x12)) (* 15 x33)) (- 30))) (?v_178 (not ?v_16))) (let ((?v_73 (not ?v_51)) (?v_91 (<= (- (- (* (- 32) x27) (* 6 x9)) (* 39 x33)) 43)) (?v_107 (<= (+ (- 0 (* 6 x10)) (* 3 x33)) (- 55))) (?v_75 (<= (+ (- (* (- 1) x24) (* 50 x31)) (* 17 x12)) (- 47))) (?v_81 (<= (- (- (* 21 x29) (* 28 x33)) (* 43 x7)) (- 12)))) (let ((?v_164 (not ?v_81)) (?v_121 (< (- (+ (* (- 21) x10) (* 53 x34)) (* 14 x28)) 22)) (?v_72 (= (+ (- (* (- 22) x29) (* 11 x15)) (* 27 x21)) (- 3)))) (let ((?v_145 (not ?v_72)) (?v_147 (<= (- (- (* 57 x30) (* 53 x30)) (* 6 x26)) (- 32))) (?v_74 (<= (- (- (* (- 5) x3) x2) (* 33 x30)) 22))) (let ((?v_162 (not ?v_74)) (?v_108 (<= (- (- (* 39 x35) (* 11 x10)) (* 52 x14)) (- 47)))) (let ((?v_169 (not ?v_108)) (?v_137 (not ?v_75)) (?v_114 (< (+ (* (- 56) x1) (* 16 x23) (* 36 x34)) (- 59)))) (let ((?v_180 (not ?v_114)) (?v_104 (<= (+ (- (* (- 41) x13) (* 28 x19)) (* 51 x28)) 49))) (let ((?v_111 (not ?v_104)) (?v_150 (not ?v_91)) (?v_133 (not ?v_87)) (?v_177 (not ?v_125)) (?v_175 (<= (+ (- (* 16 x24) x16) (* 47 x26)) (- 36))) (?v_195 (not ?v_147))) (let ((?v_176 (not ?v_175)) (?v_183 (not ?v_107)) (?v_196 (not ?v_121)) (?v_199 (not ?v_49)) (?v_194 (or ?v_108 ?v_74))) (and (and (and (and (and (and (and (and (and (and (and (and (and (and (and (and (and (and (and (and (and (and (and (and (and (and (and (and (and (and (and (and (and (and (and (and (and (and (and (and (and (and (and (and (and (and (and (and (and (and (and (and (and (and (and (and (and (and (and (and (and (and (and (and (and (and (and (and (and (and (and (and (and (and (and (and (and (and (and (and (and (and (and (and (and (and (and (and (and (and (and (and (and (and (and (and (and (and (and (and (and (and (and (and (and (and (and (and (and (and (and (and (and (and (and (and (and (and (and (and (and (and (and (and (and (and (and (and (and (and (and (and (and (and (and (and (and (and (and (and (and (and (and (and (and (and (and (and (and (and (and (and (and (and (and (and (and (and (and (and (and (and (and (and (and (and (and (and (and (and (and (and (and (and (and (and (and (and (and (and (and (and (and (and (and (and (and (and (and (and (and (and (and (and (and (and (and (and (and (and (and (and (and (and (and (and (and (and (and (and (and (and (and (and (and (and (and (and (and (and (and (and (and (and (and (and (and (and (and (and (and (and (and (and (and (and (and (and (and (and (and (and (and (and (and (and (and (and (and (and (and (and (and (and (and (and (and (and (and (and (and (and (and (and (and (and (and (and (and (and (and (and (and (and (and (and (and (and (and (and (and (and (and (and (and (and (and (and (and (and (and (and (and (and (and (and (and (and (and (and (and (and (and (and (and (and (and (and (and (and (and (and (and (and (and (and (and (and (and (and (and (and (and (and (and (and (and (and (and (and (and (and (and (and (and (and (and (and (and (and (and (and (and (and (and (and (and (and (and (and (and (and (and (and (and (and (and (and (and (and (and (and (and (and (and (and (and (and (and (and (and (and (and (and (and (and (and (and (and (and (and (and (and (and (and (and (and (and (and (and (and (and (and (and (and (and (and (and (and (and (and (and (and (and (and (and (and (and (and (and (and (and (and (and (and (and (and (and (and (and (and (and (and (and (and (and (and (and (and (and (and (and (and (and (and (and (and (and (and (and (and (and (and (and (and (and (and (and (and (and (and (and (and (and (and (and (and (and (and (and (and (and (and (and (and (and (and (and (and (and (and (and (and (and (and (and (and (and (and (or (or ?v_4 ?v_0) ?v_63) (or (or ?v_0 ?v_3) ?v_192)) (or ?v_5 P11)) (or (or ?v_10 P30) ?v_110)) (or (or P26 ?v_1) ?v_13)) (or (or P10 ?v_66) P18)) (or (or P38 ?v_157) P24)) (or (or ?v_84 ?v_46) ?v_12)) (or (or P11 ?v_102) ?v_7)) (or (or ?v_6 ?v_116) ?v_181)) (or (or ?v_94 ?v_3) ?v_148)) (or (or ?v_38 ?v_4) ?v_158)) (or (or P31 ?v_151) ?v_8)) (or (or P37 ?v_16) ?v_22)) (or (or P38 ?v_14) P1)) (or ?v_5 P27)) (or (or ?v_11 ?v_44) P13)) (or (or ?v_106 ?v_7) P11)) (or (or ?v_103 ?v_8) ?v_9)) (or (or ?v_135 P28) ?v_18)) (or (or ?v_117 ?v_6) ?v_48)) (or (or ?v_202 ?v_52) ?v_143)) (or (or ?v_3 ?v_7) ?v_11)) (or (or ?v_12 ?v_29) ?v_23)) (or (or ?v_54 ?v_13) ?v_55)) (or (or ?v_53 ?v_69) ?v_86)) (or (or ?v_49 P6) ?v_7)) (or (or ?v_64 P10) ?v_12)) (or (or ?v_14 ?v_80) ?v_7)) (or (or ?v_119 ?v_15) ?v_16)) (or (or ?v_50 ?v_17) ?v_18)) (or (or ?v_36 ?v_19) ?v_42)) (or (or ?v_4 ?v_125) ?v_61)) (or (or ?v_41 ?v_3) ?v_97)) (or (or ?v_20 ?v_45) P16)) (or (or ?v_77 ?v_39) P34)) (or (or ?v_23 ?v_40) P25)) (or (or ?v_35 ?v_136) ?v_25)) (or (or ?v_8 ?v_6) ?v_16)) (or (or ?v_87 P12) P23)) (or (or ?v_26 ?v_142) P5)) (or (or ?v_60 ?v_28) ?v_59)) (or (or ?v_29 ?v_30) ?v_37)) (or (or ?v_20 ?v_10) P10)) (or (or ?v_29 P6) ?v_31)) (or (or ?v_32 P4) ?v_33)) (or (or P10 ?v_34) ?v_12)) (or (or ?v_35 ?v_36) P5)) (or (or ?v_99 ?v_37) P5)) (or (or ?v_65 ?v_38) ?v_39)) (or (or ?v_40 ?v_51) P20)) (or (or P16 ?v_12) ?v_41)) (or (or P11 ?v_10) ?v_71)) (or (or ?v_76 P28) ?v_43)) (or (or ?v_10 ?v_70) ?v_44)) (or (or ?v_45 P12) ?v_115)) (or (or ?v_46 ?v_37) ?v_131)) (or (or P6 ?v_82) P34)) (or (or ?v_48 ?v_18) ?v_36)) (or (or ?v_178 ?v_30) ?v_49)) (or (or ?v_50 ?v_50) ?v_40)) (or (or ?v_73 ?v_52) P1)) (or (or ?v_53 ?v_54) ?v_91)) (or (or ?v_55 ?v_56) P36)) (or (or ?v_57 ?v_58) P21)) (or (or ?v_132 ?v_138) ?v_190)) (or (or P22 P22) ?v_107)) (or (or P34 P29) ?v_60)) (or (or ?v_32 ?v_129) ?v_61)) (or (or ?v_9 ?v_62) P5)) (or (or ?v_62 ?v_90) ?v_75)) (or (or ?v_55 ?v_164) ?v_64)) (or (or ?v_65 ?v_121) ?v_145)) (or (or P4 ?v_66) ?v_187)) (or (or ?v_67 P23) P8)) (or (or ?v_147 ?v_54) ?v_118)) (or (or ?v_69 ?v_29) ?v_96)) (or (or ?v_71 P17) ?v_95)) (or (or ?v_193 ?v_162) ?v_72)) (or (or ?v_141 P33) ?v_169)) (or (or P30 ?v_73) ?v_13)) (or (or P36 P19) ?v_74)) (or (or ?v_137 ?v_173) ?v_45)) (or (or (not ?v_76) P25) ?v_189)) (or (or ?v_77 ?v_31) ?v_37)) (or (or ?v_58 P37) ?v_71)) (or (or ?v_76 ?v_69) ?v_159)) (or (or ?v_98 ?v_78) ?v_34)) (or (or ?v_79 ?v_79) ?v_3)) (or (or ?v_80 P18) ?v_81)) (or (or P36 ?v_82) ?v_127)) (or (or ?v_69 ?v_101) ?v_57)) (or (or ?v_83 ?v_84) ?v_45)) (or (or ?v_54 ?v_85) ?v_120)) (or (or P18 ?v_172) ?v_76)) (or (or P4 ?v_112) ?v_87)) (or (or ?v_88 ?v_87) ?v_77)) (or (or P24 ?v_50) ?v_89)) (or (or ?v_26 ?v_90) ?v_91)) (or (or P39 ?v_80) ?v_180)) (or (or ?v_92 ?v_9) ?v_93)) (or (or ?v_8 ?v_94) ?v_59)) (or (or ?v_95 ?v_111) ?v_96)) (or (or ?v_11 ?v_43) ?v_56)) (or (or P3 P17) ?v_79)) (or (or ?v_123 ?v_18) P24)) (or (or ?v_1 ?v_97) P16)) (or (or ?v_45 ?v_98) ?v_99)) (or (or ?v_52 P24) P6)) (or (or ?v_109 ?v_150) ?v_43)) (or (or ?v_100 ?v_134) ?v_101)) (or (or ?v_94 ?v_9) ?v_144)) (or (or ?v_46 ?v_74) ?v_28)) (or (or ?v_88 P16) ?v_77)) (or (or ?v_102 ?v_103) ?v_55)) (or (or ?v_11 P17) ?v_133)) (or (or ?v_100 ?v_25) ?v_87)) (or (or P21 ?v_43) ?v_128)) (or (or ?v_104 ?v_105) ?v_87)) (or (or ?v_106 ?v_107) ?v_60)) (or (or ?v_22 ?v_108) ?v_106)) (or (or P11 ?v_107) ?v_109)) (or (or P28 ?v_73) ?v_42)) (or (or ?v_104 ?v_110) P18)) (or (or ?v_71 ?v_70) P8)) (or (or ?v_179 P27) ?v_104)) (or (or ?v_49 ?v_22) ?v_6)) (or (or P27 ?v_106) ?v_85)) (or (or ?v_18 ?v_130) ?v_105)) (or (or ?v_167 ?v_49) ?v_111)) (or (or ?v_112 ?v_9) ?v_108)) (or (or ?v_113 P10) ?v_114)) (or (or P2 ?v_64) P15)) (or (or ?v_13 ?v_101) ?v_115)) (or (or ?v_124 P25) ?v_116)) (or (or ?v_117 ?v_118) ?v_105)) (or (or ?v_122 ?v_107) ?v_19)) (or (or ?v_116 ?v_80) ?v_87)) (or (or ?v_119 ?v_23) ?v_58)) (or (or ?v_28 P1) ?v_154)) (or (or P12 ?v_81) ?v_70)) (or (or ?v_98 ?v_120) ?v_57)) (or (or ?v_121 ?v_122) ?v_10)) (or (or ?v_85 ?v_79) ?v_0)) (or (or ?v_57 ?v_101) ?v_8)) (or (or ?v_122 ?v_39) ?v_123)) (or (or ?v_112 ?v_33) ?v_124)) (or (or ?v_15 ?v_100) ?v_108)) (or (or ?v_85 ?v_177) ?v_74)) (or (or ?v_28 ?v_166) ?v_100)) (or (or ?v_74 ?v_61) ?v_60)) (or (or ?v_152 ?v_126) ?v_163)) (or (or ?v_126 P15) ?v_127)) (or (or ?v_7 ?v_12) ?v_92)) (or (or ?v_65 ?v_35) ?v_128)) (or (or ?v_170 ?v_40) ?v_156)) (or (or ?v_17 ?v_69) ?v_129)) (or (or ?v_84 P35) ?v_26)) (or (or P38 ?v_130) ?v_175)) (or (or ?v_131 ?v_132) ?v_14)) (or (or P12 ?v_19) ?v_65)) (or (or ?v_133 ?v_33) ?v_108)) (or (or ?v_82 ?v_53) ?v_134)) (or (or ?v_58 ?v_99) ?v_135)) (or (or ?v_130 ?v_40) ?v_182)) (or (or ?v_37 ?v_101) ?v_42)) (or (or ?v_200 ?v_17) ?v_137)) (or (or ?v_138 ?v_33) ?v_139)) (or (or P12 P11) ?v_186)) (or (or ?v_73 P37) ?v_119)) (or (or ?v_57 ?v_197) ?v_140)) (or (or ?v_141 ?v_31) ?v_69)) (or (or ?v_141 ?v_25) ?v_149)) (or (or ?v_16 ?v_78) P1)) (or (or ?v_142 ?v_23) ?v_29)) (or (or ?v_114 P17) ?v_143)) (or (or P19 ?v_121) ?v_93)) (or (or ?v_12 ?v_125) ?v_49)) (or (or ?v_144 ?v_130) ?v_82)) (or (or ?v_145 ?v_4) P20)) (or (or ?v_146 ?v_147) ?v_129)) (or (or P10 ?v_29) ?v_148)) (or (or ?v_149 ?v_31) ?v_150)) (or (or ?v_151 ?v_101) ?v_18)) (or (or ?v_35 ?v_171) ?v_42)) (or (or ?v_63 P1) ?v_93)) (or (or P11 P12) ?v_104)) (or (or ?v_90 ?v_110) P5)) (or (or ?v_116 ?v_53) ?v_63)) (or (or ?v_88 ?v_153) ?v_29)) (or (or ?v_121 ?v_133) ?v_59)) (or (or ?v_134 ?v_52) P28)) (or (or P7 ?v_101) ?v_91)) (or (or ?v_154 P32) ?v_155)) (or (or ?v_156 ?v_157) P4)) (or (or ?v_39 ?v_98) ?v_135)) (or (or ?v_12 ?v_34) ?v_111)) (or (or ?v_95 ?v_158) ?v_39)) (or (or ?v_184 ?v_48) ?v_119)) (or (or ?v_34 ?v_88) ?v_161)) (or (or ?v_0 P21) ?v_160)) (or (or ?v_109 ?v_161) ?v_82)) (or (or ?v_87 ?v_162) ?v_163)) (or (or ?v_165 ?v_138) ?v_15)) (or (or ?v_164 ?v_35) ?v_80)) (or (or ?v_50 P21) ?v_105)) (or (or ?v_52 ?v_165) ?v_117)) (or (or ?v_107 ?v_54) ?v_153)) (or (or ?v_113 ?v_11) ?v_166)) (or (or ?v_23 ?v_86) ?v_120)) (or (or ?v_185 ?v_162) ?v_137)) (or (or ?v_17 ?v_67) ?v_43)) (or (or ?v_167 ?v_102) P12)) (or (or ?v_146 P18) ?v_168)) (or (or ?v_33 ?v_63) ?v_166)) (or (or ?v_161 ?v_3) ?v_140)) (or (or ?v_82 ?v_90) ?v_60)) (or (or ?v_154 ?v_169) ?v_168)) (or (or ?v_42 ?v_88) P15)) (or (or ?v_120 P33) ?v_102)) (or (or ?v_158 ?v_146) ?v_96)) (or (or ?v_142 ?v_195) ?v_8)) (or (or ?v_50 ?v_170) ?v_122)) (or (or ?v_82 ?v_91) ?v_142)) (or (or P15 ?v_54) ?v_126)) (or (or ?v_6 ?v_125) P12)) (or (or ?v_171 P27) ?v_172)) (or (or ?v_57 ?v_62) ?v_41)) (or (or ?v_44 ?v_54) ?v_116)) (or (or ?v_89 P31) ?v_138)) (or (or ?v_3 ?v_159) ?v_87)) (or (or ?v_168 ?v_140) ?v_52)) (or (or ?v_173 ?v_165) P5)) (or (or ?v_15 ?v_40) ?v_16)) (or (or ?v_131 ?v_129) ?v_165)) (or (or ?v_33 ?v_72) P35)) (or (or ?v_15 ?v_156) ?v_69)) (or (or ?v_98 ?v_66) P22)) (or (or ?v_174 P27) ?v_63)) (or (or ?v_149 ?v_141) ?v_120)) (or (or ?v_46 ?v_176) ?v_55)) (or (or P37 P30) ?v_32)) (or (or ?v_14 P6) ?v_83)) (or (or ?v_162 P27) ?v_176)) (or (or P14 (not P22)) ?v_177)) (or (or ?v_79 ?v_164) ?v_113)) (or (or ?v_65 ?v_36) ?v_19)) (or (or ?v_97 ?v_166) ?v_160)) (or (or ?v_178 ?v_110) ?v_179)) (or (or P5 ?v_9) ?v_161)) (or (or P15 ?v_97) ?v_65)) (or (or ?v_102 ?v_183) P27)) (or (or ?v_77 ?v_107) ?v_123)) (or (or ?v_103 ?v_81) ?v_180)) (or (or ?v_139 P35) ?v_109)) (or (or ?v_54 ?v_172) ?v_148)) (or (or ?v_51 ?v_52) ?v_137)) (or (or ?v_137 ?v_170) ?v_128)) (or (or ?v_114 ?v_168) ?v_196)) (or (or ?v_167 P16) P21)) (or (or ?v_135 ?v_67) ?v_97)) (or (or ?v_13 ?v_180) P24)) (or (or ?v_176 ?v_171) ?v_54)) (or (or P7 P1) ?v_57)) (or (or ?v_141 ?v_52) P34)) (or (or ?v_94 ?v_141) ?v_127)) (or (or ?v_16 ?v_118) ?v_181)) (or (or ?v_98 ?v_80) ?v_154)) (or (or ?v_31 ?v_130) ?v_180)) (or (or ?v_39 ?v_18) ?v_139)) (or (or P32 ?v_101) ?v_75)) (or (or P3 ?v_133) ?v_112)) (or (or ?v_178 ?v_109) ?v_103)) (or (or ?v_109 ?v_48) ?v_18)) (or (or ?v_57 ?v_108) ?v_37)) (or (or ?v_79 ?v_176) ?v_201)) (or (or ?v_133 ?v_169) ?v_152)) (or (or ?v_81 ?v_31) ?v_182)) (or (or ?v_141 ?v_183) ?v_38)) (or (or ?v_89 ?v_124) ?v_95)) (or (or ?v_64 ?v_165) ?v_3)) (or (or ?v_155 P21) P30)) (or (or ?v_149 ?v_76) P25)) (or (or ?v_184 P2) ?v_118)) (or (or ?v_89 ?v_131) ?v_120)) (or (or ?v_40 ?v_77) ?v_162)) (or (or ?v_108 ?v_3) ?v_105)) (or (or ?v_171 ?v_185) ?v_39)) (or (or P16 P21) ?v_72)) (or (or ?v_45 ?v_108) ?v_34)) (or (or ?v_118 ?v_179) P35)) (or (or P4 ?v_73) ?v_186)) (or (or ?v_151 P36) ?v_153)) (or (or ?v_66 ?v_116) P39)) (or (or P39 ?v_182) ?v_35)) (or (or P9 ?v_59) ?v_126)) (or (or ?v_187 ?v_14) ?v_28)) (or (or ?v_59 ?v_133) ?v_67)) (or (or ?v_164 P4) ?v_64)) (or (or P2 ?v_177) ?v_42)) (or (or ?v_8 ?v_15) ?v_80)) (or (or ?v_74 P35) ?v_49)) (or (or ?v_163 ?v_81) ?v_33)) (or (or ?v_94 ?v_152) ?v_50)) (or (or ?v_110 ?v_111) ?v_22)) (or (or ?v_131 ?v_191) P25)) (or (or ?v_154 ?v_142) ?v_141)) (or (or ?v_76 ?v_86) ?v_133)) (or (or ?v_156 ?v_82) ?v_199)) (or (or ?v_143 P13) ?v_60)) (or (or P33 ?v_188) ?v_120)) (or (or P13 ?v_128) ?v_101)) (or (or P6 ?v_177) ?v_92)) (or (or ?v_89 P11) ?v_74)) (or (or ?v_0 ?v_23) P28)) (or (or ?v_101 ?v_87) ?v_57)) (or (or ?v_41 ?v_34) ?v_99)) (or (or ?v_121 ?v_188) P27)) (or (or ?v_11 ?v_53) P1)) (or (or ?v_104 P27) ?v_189)) (or (or ?v_18 ?v_108) ?v_1)) (or (or ?v_189 ?v_80) ?v_190)) (or (or P39 ?v_16) ?v_136)) (or (or ?v_35 ?v_84) ?v_91)) (or (or ?v_166 ?v_53) ?v_161)) (or (or ?v_184 ?v_143) P6)) (or (or ?v_38 ?v_123) ?v_112)) (or (or ?v_139 P34) ?v_64)) (or (or ?v_39 ?v_121) ?v_151)) (or (or ?v_128 ?v_163) ?v_191)) (or (or ?v_140 ?v_8) ?v_12)) (or (or ?v_72 ?v_101) ?v_192)) (or (or ?v_109 ?v_127) ?v_137)) (or (or ?v_160 ?v_122) P4)) (or (or ?v_166 ?v_1) ?v_162)) (or (or P4 ?v_190) ?v_105)) (or (or ?v_87 (not ?v_37)) ?v_81)) (or ?v_194 P33)) (or (or ?v_4 ?v_46) ?v_130)) (or (or ?v_55 ?v_26) ?v_193)) (or (or ?v_159 ?v_159) P0)) (or (or ?v_77 ?v_179) ?v_76)) (or (or P0 P23) P28)) (or (or ?v_87 P17) ?v_44)) (or (or P32 ?v_107) ?v_179)) (or (or ?v_125 ?v_141) ?v_183)) (or (or P29 ?v_188) ?v_189)) (or (or ?v_61 ?v_60) ?v_66)) (or (or ?v_51 P17) ?v_141)) (or (or ?v_139 ?v_35) ?v_118)) (or (or ?v_141 ?v_163) ?v_34)) (or (or ?v_96 ?v_12) ?v_103)) (or (or ?v_42 ?v_157) ?v_125)) (or ?v_194 ?v_78)) (or (or ?v_40 ?v_128) ?v_181)) (or (or ?v_124 ?v_33) P39)) (or (or ?v_192 P36) ?v_59)) (or (or ?v_40 ?v_110) ?v_168)) (or (or P13 ?v_165) ?v_120)) (or (or ?v_69 ?v_49) ?v_51)) (or (or ?v_82 ?v_92) ?v_56)) (or (or ?v_143 ?v_158) ?v_85)) (or (or ?v_50 ?v_183) ?v_88)) (or (or ?v_61 ?v_140) ?v_115)) (or (or ?v_7 ?v_44) ?v_102)) (or (or ?v_195 ?v_100) ?v_125)) (or (or ?v_167 P38) ?v_59)) (or (or ?v_84 ?v_16) ?v_35)) (or (or ?v_70 ?v_112) ?v_123)) (or (or ?v_70 ?v_103) ?v_113)) (or (or ?v_169 ?v_67) ?v_33)) (or (or ?v_181 ?v_74) P28)) (or (or ?v_187 ?v_133) ?v_40)) (or (or ?v_139 ?v_196) ?v_9)) (or (or ?v_90 ?v_160) ?v_197)) (or (or ?v_41 ?v_135) ?v_95)) (or (or ?v_198 ?v_187) ?v_147)) (or (or ?v_19 ?v_53) ?v_185)) (or (or ?v_199 ?v_78) ?v_173)) (or (or ?v_161 ?v_110) ?v_31)) (or (or ?v_56 ?v_161) ?v_165)) (or (or ?v_87 P22) ?v_151)) (or (or ?v_179 ?v_132) ?v_85)) (or (or ?v_83 P14) ?v_141)) (or (or ?v_43 ?v_200) ?v_83)) (or (or ?v_71 ?v_72) ?v_175)) (or (or ?v_49 ?v_6) ?v_95)) (or (or ?v_89 ?v_23) ?v_130)) (or (or ?v_171 ?v_132) ?v_129)) (or (or ?v_58 ?v_136) P37)) (or (or ?v_112 P23) ?v_164)) (or (or ?v_165 P21) ?v_119)) (or (or ?v_160 ?v_35) ?v_20)) (or (or ?v_170 ?v_80) ?v_112)) (or (or P27 ?v_50) ?v_152)) (or (or ?v_77 ?v_62) ?v_169)) (or (or ?v_53 ?v_110) ?v_153)) (or (or ?v_105 ?v_42) P12)) (or (or ?v_153 ?v_118) ?v_192)) (or (or ?v_150 ?v_6) ?v_93)) (or (or ?v_154 ?v_91) ?v_83)) (or (or P29 ?v_197) ?v_17)) (or (or ?v_28 ?v_99) ?v_192)) (or (or ?v_161 P28) ?v_7)) (or (or ?v_29 ?v_165) ?v_157)) (or (or P30 ?v_167) ?v_136)) (or (or ?v_98 ?v_64) ?v_143)) (or (or ?v_110 ?v_119) ?v_177)) (or (or ?v_167 ?v_53) ?v_161)) (or (or P28 ?v_192) ?v_92)) (or (or ?v_103 P37) ?v_4)) (or (or ?v_11 ?v_152) ?v_110)) (or (or P11 (not P5)) ?v_56)) (or (or ?v_164 ?v_40) ?v_63)) (or (or ?v_36 ?v_132) ?v_28)) (or (or ?v_129 ?v_97) ?v_155)) (or (or ?v_130 ?v_56) ?v_185)) (or (or ?v_41 ?v_22) ?v_103)) (or (or ?v_6 ?v_127) P38)) (or (or ?v_90 ?v_116) ?v_29)) (or (or ?v_103 ?v_91) ?v_132)) (or (or P37 ?v_110) ?v_12)) (or (or ?v_135 ?v_135) ?v_103)) (or (or ?v_94 P5) ?v_30)) (or (or ?v_6 P39) ?v_171)) (or (or ?v_161 P21) ?v_76)) (or (or ?v_184 ?v_137) ?v_73)) (or (or ?v_42 ?v_183) ?v_39)) (or (or ?v_18 P37) ?v_167)) (or (or ?v_133 ?v_127) ?v_100)) (or (or ?v_175 ?v_71) ?v_135)) (or (or ?v_182 ?v_167) ?v_22)) (or (or ?v_162 ?v_123) ?v_49)) (or (or ?v_69 ?v_111) ?v_156)) (or (or ?v_46 ?v_4) ?v_149)) (or (or ?v_101 ?v_120) ?v_164)) (or (or ?v_42 ?v_74) ?v_189)) (or (or ?v_200 ?v_109) ?v_75)) (or (or ?v_195 P11) ?v_154)) (or (or P28 ?v_111) ?v_89)) (or (or ?v_14 P3) ?v_184)) (or (or ?v_46 ?v_73) ?v_164)) (or (or ?v_22 ?v_162) ?v_164)) (or (or ?v_146 ?v_20) P29)) (or (or P19 ?v_100) P11)) (or (or ?v_46 ?v_40) ?v_201)) (or (or ?v_157 ?v_31) ?v_83)) (or (or ?v_58 ?v_119) ?v_80)) (or (or ?v_140 ?v_17) ?v_160)) (or (or ?v_151 ?v_134) ?v_183)) (or (or ?v_34 ?v_184) ?v_94)) (or (or P5 P1) ?v_122)) (or (or ?v_66 P1) ?v_58)) (or (or ?v_127 ?v_71) ?v_86)) (or (or ?v_0 ?v_202) ?v_54)) (or (or ?v_81 ?v_96) P27)) (or (or ?v_183 P2) P23)) (or (or ?v_50 P15) P16)) (or (or ?v_143 ?v_134) ?v_18)) (or (or ?v_197 ?v_126) ?v_124)) (or (or ?v_75 P23) ?v_57)) (or (or ?v_6 ?v_126) ?v_77)) (or (or P20 P30) ?v_82)) (or (or ?v_203 ?v_190) ?v_111)) (or (or ?v_19 ?v_203) ?v_8)) (or (or ?v_184 ?v_145) P34)) (or (or ?v_196 P6) ?v_92)) (or (or ?v_29 ?v_138) ?v_187)) (or (or ?v_176 ?v_6) P25)) (or (or ?v_133 ?v_202) P22)) (or (or ?v_104 ?v_133) ?v_165)) (or (or P34 ?v_146) ?v_164)) (or (or ?v_53 P18) ?v_70)) (or (or P13 ?v_67) ?v_187)) (or (or ?v_48 ?v_112) ?v_146)) (or (or ?v_60 ?v_160) ?v_142)) (or (or ?v_14 ?v_67) ?v_165)) (or (or ?v_114 ?v_82) P15)) (or (or P36 ?v_156) ?v_203)) (or (or ?v_42 ?v_152) ?v_164))))))))))))))))))))))))))))))))))
(check-sat)
(exit)
